0 7 4 9 3 7 3 9 1 3
5 0 3 10 1 7 1 3 10 6
5 9 0 7 7 3 8 1 10 3
4 1 9 0 4 7 9 2 9 5
5 8 9 1 0 2 4 9 10 10
10 3 8 3 8 0 9 6 3 8
3 4 8 6 2 1 0 10 10 4
9 3 9 1 3 9 10 0 4 7
3 1 8 10 2 1 10 4 0 1
1 4 2 1 9 6 2 1 9 0
